#####################################################
# Stage 3: Pulling Simulations                      #
# Version:Dec-20-2017                               #
#####################################################


# Initialization
units		lj
boundary	p p f
atom_style	full
log 		log.txt
bond_style	fene
angle_style     cosine
pair_style      lj/cut/coul/long 1.122462 10.0
read_data	init_datafile

# Neighbor information
neighbor        0.3 bin
neigh_modify	every 1 delay 0 check yes one 10000

# Pair Information
special_bonds   fene
bond_coeff	1 30 1.6 1.5 1
angle_coeff     1 3
dihedral_style	none
improper_style 	none
pair_coeff	* * 1 1 
kspace_style	pppm 0.00001
kspace_modify   slab 3.0
dielectric	1

# Define Groups
group bottom_atoms type 1
group not_bottom subtract all bottom_atoms
group ref_anions id init:fin
group brush_cations type 3 4 
group umbgroup union ref_anions brush_cations

group one id init:fin
group two id 1:2560
group col union one two

#####################################################
# Equilibration (Langevin dynamics at kT=1)
#####################################################

shell "rm -f out.colvars.*"
# Initiate/Write Atoms and Other Details
variable        ts equal step
velocity 	not_bottom create 1 1231
thermo_style	custom step temp pe
thermo          10000
dump            main all custom 500 smdtraj_${ts}.lammpstrj id type xu yu zu

# Main Fixes
fix  wallhi   all wall/lj126 zhi  EDGE 0.5 0.5 0.56123
fix  walllow  all wall/lj126 zlo  EDGE 0.5 0.5 0.56123
fix  2 not_bottom langevin 1 1 6.99 904297
fix  umbsample all colvars umbcolfile.inp
fix  freeze bottom_atoms setforce NULL NULL 0.0
fix  1 all nve

# Run Styles
restart   5000  restart1 restart2
restart   50000 smdarchival.*_restart
timestep  0.005
run	  1000000

#Unfix all
unfix 1
unfix 2
unfix umbsample
unfix freeze
unfix wallhi
unfix walllow
